28
17
16
8
84
74
25
0
0
14
6
20
20
42
0
13
0
47
8
37
38
47
0
26
11
29
9
16
0
7
35
0
0
9
0
42
11
0
0
0
27
14
6
0
112
0
0
37
0
39
109
18
116
48
14
43
52
48
111
31
23
7
25
29
56
0
16
6
7
72
25
15
36
38
10
0
75
55
0
11
17
0
26
16
0
0
6
18
55
36
40
33
11
13
31
12
7
6
8
31
